
Gurobi 10.0.1 (mac64[arm]) logging started Mon Sep 18 22:47:42 2023

Set parameter LogFile to value "scenario_capacity/CAP_f/results/CAP_f_-50/mip_log.txt"
Gurobi Optimizer version 10.0.1 build v10.0.1rc0 (mac64[arm])

CPU model: Apple M1
Thread count: 8 physical cores, 8 logical processors, using up to 8 threads

Optimize a model with 1694 rows, 6293 columns and 24772 nonzeros
Model fingerprint: 0x0b7d3dbd
Model has 8978 general constraints
Variable types: 1 continuous, 6292 integer (408 binary)
Coefficient statistics:
  Matrix range     [6e-02, 3e+05]
  Objective range  [9e-02, 2e+05]
  Bounds range     [1e+00, 2e+07]
  RHS range        [4e+03, 2e+04]
  GenCon rhs range [1e+00, 1e+00]
  GenCon coe range [1e+00, 1e+00]
Presolve removed 44 rows and 373 columns
Presolve time: 0.07s
Presolved: 1650 rows, 5920 columns, 23713 nonzeros
Presolved model has 4 SOS constraint(s)
Variable types: 0 continuous, 5920 integer (34 binary)

Root relaxation: objective 5.355913e+07, 6939 iterations, 0.08 seconds (0.10 work units)

    Nodes    |    Current Node    |     Objective Bounds      |     Work
 Expl Unexpl |  Obj  Depth IntInf | Incumbent    BestBd   Gap | It/Node Time

     0     0 5.3559e+07    0  338          - 5.3559e+07      -     -    0s
     0     0 5.4676e+07    0  748          - 5.4676e+07      -     -    0s
     0     0 5.4692e+07    0  812          - 5.4692e+07      -     -    0s
     0     0 5.4705e+07    0  813          - 5.4705e+07      -     -    0s
     0     0 5.4705e+07    0  814          - 5.4705e+07      -     -    0s
     0     0 5.4705e+07    0  815          - 5.4705e+07      -     -    0s
     0     0 5.4705e+07    0  881          - 5.4705e+07      -     -    0s
     0     0 5.4705e+07    0  898          - 5.4705e+07      -     -    0s
     0     0 5.4705e+07    0  901          - 5.4705e+07      -     -    0s
     0     0 5.4705e+07    0 1040          - 5.4705e+07      -     -    0s
     0     0 5.4705e+07    0  994          - 5.4705e+07      -     -    0s
H    0     0                    5.874210e+07 5.4705e+07  6.87%     -    0s
     0     2 5.4705e+07    0  986 5.8742e+07 5.4705e+07  6.87%     -    0s
H   37    40                    5.870284e+07 5.4929e+07  6.43%   589    1s
H   40    40                    5.870132e+07 5.4929e+07  6.43%   557    1s
H   72    72                    5.869846e+07 5.4929e+07  6.42%   458    2s
H   73    72                    5.869511e+07 5.4929e+07  6.42%   452    2s
H   75    72                    5.857436e+07 5.4929e+07  6.22%   450    2s
H   76    72                    5.740976e+07 5.4929e+07  4.32%   451    2s
H   79    72                    5.720651e+07 5.4929e+07  3.98%   442    2s
   818   318 5.5414e+07   11  875 5.7207e+07 5.5209e+07  3.49%   291    5s
H 1617   820                    5.720632e+07 5.5422e+07  3.12%   192    5s
H 1622   784                    5.709471e+07 5.5422e+07  2.93%   196    6s
H 1701   802                    5.709470e+07 5.5422e+07  2.93%   195    7s
H 3678   764                    5.709465e+07 5.5422e+07  2.93%   163   10s
H 3695   744                    5.709464e+07 5.5422e+07  2.93%   163   10s
H 4236   924                    5.702129e+07 5.5422e+07  2.81%   158   10s
H 4281   923                    5.698328e+07 5.5422e+07  2.74%   157   10s
  8061  1655 5.5739e+07   27  309 5.6983e+07 5.5422e+07  2.74%   153   15s
 12811  2355 infeasible   29      5.6983e+07 5.5422e+07  2.74%   149   20s
 17287  2553 5.5422e+07   24  143 5.6983e+07 5.5422e+07  2.74%   147   25s
 20246  2456 infeasible   26      5.6983e+07 5.5422e+07  2.74%   149   30s
 25782  1720 5.5628e+07   27   94 5.6983e+07 5.5440e+07  2.71%   151   36s
 30253  2755 5.5840e+07   28    2 5.6983e+07 5.5744e+07  2.17%   148   40s
 54124 24619 5.5808e+07 4848   68 5.6983e+07 5.5807e+07  2.06%  87.9   45s
H60128 26029                    5.690624e+07 5.5807e+07  1.93%  80.0   46s
*60161 25540             217    5.690622e+07 5.5807e+07  1.93%  80.0   46s
H60222 25145                    5.690622e+07 5.5807e+07  1.93%  80.0   46s
H60325 25145                    5.690622e+07 5.5807e+07  1.93%  79.9   46s
H60340 25144                    5.690622e+07 5.5807e+07  1.93%  79.8   46s
H60356 25128                    5.690622e+07 5.5807e+07  1.93%  79.8   46s
H61193 25512                    5.690621e+07 5.5807e+07  1.93%  79.3   47s
H62453 26006                    5.690621e+07 5.5807e+07  1.93%  78.2   47s
 65914 27366 5.6906e+07  714   10 5.6906e+07 5.5807e+07  1.93%  76.3   50s
 75036 31092 5.6906e+07 2037    8 5.6906e+07 5.5807e+07  1.93%  72.1   55s
 83261 34262 5.6906e+07 3534    8 5.6906e+07 5.5807e+07  1.93%  69.2   60s
 89874 36587 5.6906e+07 4513   10 5.6906e+07 5.5807e+07  1.93%  67.7   65s
 97791 39403 5.6906e+07 5654   12 5.6906e+07 5.5807e+07  1.93%  66.5   70s
H100464 31276                    5.690621e+07 5.5807e+07  1.93%  65.9   72s
 103507 31452 5.5807e+07   43   61 5.6906e+07 5.5807e+07  1.93%  66.3   75s
 108194 32560 infeasible   92      5.6906e+07 5.5807e+07  1.93%  66.8   80s
 114675 33781 5.5807e+07   72  103 5.6906e+07 5.5807e+07  1.93%  67.4   85s
 120981 36306 5.5807e+07   94   78 5.6906e+07 5.5807e+07  1.93%  67.4   90s
 127103 40917 5.5807e+07  351   55 5.6906e+07 5.5807e+07  1.93%  66.3   95s
 137863 49802 5.5807e+07 2776   55 5.6906e+07 5.5807e+07  1.93%  62.5  100s
 152847 63112 5.5807e+07 5687   51 5.6906e+07 5.5807e+07  1.93%  57.5  105s
 165534 74718 5.5807e+07 7914   55 5.6906e+07 5.5807e+07  1.93%  53.8  110s
 178873 86465 5.5807e+07 10421   51 5.6906e+07 5.5807e+07  1.93%  50.6  115s
 191916 98267 5.5807e+07 13264   37 5.6906e+07 5.5807e+07  1.93%  48.3  120s
 204033 109099 5.5807e+07 15549   41 5.6906e+07 5.5807e+07  1.93%  46.2  125s
 217835 121467 5.5807e+07 18127   41 5.6906e+07 5.5807e+07  1.93%  44.0  130s
 232098 134260 5.5807e+07 21278   37 5.6906e+07 5.5807e+07  1.93%  42.0  135s
 247077 147984 5.5807e+07 24854   37 5.6906e+07 5.5807e+07  1.93%  40.2  140s
 262352 161924 5.5807e+07 28345   41 5.6906e+07 5.5807e+07  1.93%  38.4  145s
 276485 175559 5.5807e+07 31198   37 5.6906e+07 5.5807e+07  1.93%  36.8  150s
 296115 193816 5.5807e+07 34176   37 5.6906e+07 5.5807e+07  1.93%  34.7  155s
 313491 210829 5.5807e+07 1307   31 5.6906e+07 5.5807e+07  1.93%  33.2  160s
 327769 223764 5.5807e+07 3383   31 5.6906e+07 5.5807e+07  1.93%  32.0  165s
 340138 235047 5.5807e+07 5798   31 5.6906e+07 5.5807e+07  1.93%  31.3  170s
 351803 245014 5.5807e+07 8294   31 5.6906e+07 5.5807e+07  1.93%  30.7  175s
 365144 256931 5.5807e+07 10861   31 5.6906e+07 5.5807e+07  1.93%  30.0  180s
 378821 268602 5.5807e+07  136   77 5.6906e+07 5.5807e+07  1.93%  29.4  185s
 390355 278735 5.5807e+07  259   75 5.6906e+07 5.5807e+07  1.93%  28.9  190s
 401756 288576 5.5807e+07  130   87 5.6906e+07 5.5807e+07  1.93%  28.6  195s
 415358 300542 5.5807e+07   82   64 5.6906e+07 5.5807e+07  1.93%  28.1  200s
 429086 312821 5.5807e+07   82   48 5.6906e+07 5.5807e+07  1.93%  27.5  205s
 440930 323278 infeasible   66      5.6906e+07 5.5807e+07  1.93%  27.1  210s
 453122 333923 infeasible  198      5.6906e+07 5.5807e+07  1.93%  26.8  215s
 464676 344418 5.5807e+07   67   93 5.6906e+07 5.5807e+07  1.93%  26.4  220s
 477089 354791 5.5807e+07   72   96 5.6906e+07 5.5807e+07  1.93%  26.0  225s
 486258 361183 5.5807e+07   83   91 5.6906e+07 5.5807e+07  1.93%  26.1  230s
 497849 370601 infeasible   64      5.6906e+07 5.5807e+07  1.93%  26.0  235s
 510567 381767 5.5807e+07  237   63 5.6906e+07 5.5807e+07  1.93%  25.6  240s
 524852 394832 5.5807e+07 2796   59 5.6906e+07 5.5807e+07  1.93%  25.2  245s
 540548 409161 5.5807e+07 5400   59 5.6906e+07 5.5807e+07  1.93%  24.7  250s
 555224 422393 5.5807e+07 7720   59 5.6906e+07 5.5807e+07  1.93%  24.3  255s
 568618 433717 5.5807e+07 10158   59 5.6906e+07 5.5807e+07  1.93%  24.0  260s
 581089 445126 5.5807e+07 12296   63 5.6906e+07 5.5807e+07  1.93%  23.8  265s
 595113 457858 5.5807e+07 14644   63 5.6906e+07 5.5807e+07  1.93%  23.4  270s
 606045 468954 5.5807e+07 16263   59 5.6906e+07 5.5807e+07  1.93%  23.1  275s
 624037 485648 5.5807e+07 18979   59 5.6906e+07 5.5807e+07  1.93%  22.6  280s
 640643 501273 5.5807e+07 21742   63 5.6906e+07 5.5807e+07  1.93%  22.2  285s
 654127 513580 5.5807e+07 24198   37 5.6906e+07 5.5807e+07  1.93%  21.9  290s
 666407 524237 5.5807e+07 26672   37 5.6906e+07 5.5807e+07  1.93%  21.8  295s
 679460 535022 5.5807e+07 29338   37 5.6906e+07 5.5807e+07  1.93%  21.6  300s

Explored 679908 nodes (14688618 simplex iterations) in 300.02 seconds (342.28 work units)
Thread count was 8 (of 8 available processors)

Solution count 10: 5.69062e+07 5.69062e+07 5.69062e+07 ... 5.69833e+07

Time limit reached
Best objective 5.690621439050e+07, best bound 5.580700677022e+07, gap 1.9316%
